Graphene
   1
24.700000000000003   0.0   0.0   
-12.350000000000001   21.390827473475635   0.0   
0   0   12   
   C
    200
Cartesian
0.0   0.0   0.0   
1.235   0.7130275824491878   0.0   
-1.2350000000000003   2.1390827473475635   0.0   
0.0   2.8521103297967514   0.0   
-2.4700000000000006   4.278165494695127   0.0   
-1.2350000000000005   4.991193077144315   0.0   
-3.705   6.417248242042691   0.0   
-2.4700000000000006   7.1302758244918785   0.0   
-4.940000000000001   8.556330989390254   0.0   
-3.705000000000001   9.269358571839442   0.0   
-6.175000000000001   10.695413736737818   0.0   
-4.94   11.408441319187006   0.0   
-7.41   12.834496484085381   0.0   
-6.175000000000001   13.547524066534569   0.0   
-8.645   14.973579231432943   0.0   
-7.41   15.68660681388213   0.0   
-9.880000000000003   17.11266197878051   0.0   
-8.645000000000001   17.825689561229698   0.0   
-11.115000000000002   19.251744726128074   0.0   
-9.880000000000003   19.96477230857726   0.0   
2.4700000000000006   0.0   0.0   
3.7050000000000014   0.7130275824491878   0.0   
1.2350000000000003   2.1390827473475635   0.0   
2.4700000000000015   2.8521103297967514   0.0   
0.0   4.278165494695127   0.0   
1.2350000000000008   4.991193077144315   0.0   
-1.2349999999999994   6.417248242042691   0.0   
8.881784197001252e-16   7.1302758244918785   0.0   
-2.4700000000000006   8.556330989390254   0.0   
-1.2349999999999994   9.269358571839442   0.0   
-3.705   10.695413736737818   0.0   
-2.469999999999999   11.408441319187006   0.0   
-4.9399999999999995   12.834496484085381   0.0   
-3.704999999999999   13.547524066534569   0.0   
-6.174999999999999   14.973579231432943   0.0   
-4.939999999999999   15.68660681388213   0.0   
-7.410000000000002   17.11266197878051   0.0   
-6.175   17.825689561229698   0.0   
-8.645000000000001   19.251744726128074   0.0   
-7.410000000000001   19.96477230857726   0.0   
4.940000000000001   0.0   0.0   
6.175   0.7130275824491878   0.0   
3.705000000000001   2.1390827473475635   0.0   
4.94   2.8521103297967514   0.0   
2.4700000000000006   4.278165494695127   0.0   
3.7049999999999996   4.991193077144315   0.0   
1.2350000000000012   6.417248242042691   0.0   
2.4699999999999998   7.1302758244918785   0.0   
0.0   8.556330989390254   0.0   
1.2349999999999994   9.269358571839442   0.0   
-1.2349999999999994   10.695413736737818   0.0   
0.0   11.408441319187006   0.0   
-2.469999999999999   12.834496484085381   0.0   
-1.2350000000000003   13.547524066534569   0.0   
-3.7049999999999983   14.973579231432943   0.0   
-2.4699999999999998   15.68660681388213   0.0   
-4.940000000000001   17.11266197878051   0.0   
-3.705000000000001   17.825689561229698   0.0   
-6.175000000000001   19.251744726128074   0.0   
-4.940000000000002   19.96477230857726   0.0   
7.41   0.0   0.0   
8.645   0.7130275824491878   0.0   
6.175   2.1390827473475635   0.0   
7.41   2.8521103297967514   0.0   
4.9399999999999995   4.278165494695127   0.0   
6.174999999999999   4.991193077144315   0.0   
3.705   6.417248242042691   0.0   
4.9399999999999995   7.1302758244918785   0.0   
2.469999999999999   8.556330989390254   0.0   
3.704999999999999   9.269358571839442   0.0   
1.2349999999999994   10.695413736737818   0.0   
2.4699999999999998   11.408441319187006   0.0   
0.0   12.834496484085381   0.0   
1.2349999999999994   13.547524066534569   0.0   
-1.2349999999999994   14.973579231432943   0.0   
0.0   15.68660681388213   0.0   
-2.4700000000000024   17.11266197878051   0.0   
-1.2350000000000012   17.825689561229698   0.0   
-3.705000000000002   19.251744726128074   0.0   
-2.4700000000000024   19.96477230857726   0.0   
9.880000000000003   0.0   0.0   
11.115000000000002   0.7130275824491878   0.0   
8.645000000000003   2.1390827473475635   0.0   
9.880000000000003   2.8521103297967514   0.0   
7.410000000000002   4.278165494695127   0.0   
8.645000000000001   4.991193077144315   0.0   
6.1750000000000025   6.417248242042691   0.0   
7.410000000000002   7.1302758244918785   0.0   
4.940000000000001   8.556330989390254   0.0   
6.175000000000002   9.269358571839442   0.0   
3.705000000000002   10.695413736737818   0.0   
4.940000000000002   11.408441319187006   0.0   
2.4700000000000024   12.834496484085381   0.0   
3.705000000000002   13.547524066534569   0.0   
1.235000000000003   14.973579231432943   0.0   
2.4700000000000024   15.68660681388213   0.0   
0.0   17.11266197878051   0.0   
1.2350000000000012   17.825689561229698   0.0   
-1.2349999999999994   19.251744726128074   0.0   
0.0   19.96477230857726   0.0   
12.350000000000001   0.0   0.0   
13.585   0.7130275824491878   0.0   
11.115000000000002   2.1390827473475635   0.0   
12.350000000000001   2.8521103297967514   0.0   
9.88   4.278165494695127   0.0   
11.115   4.991193077144315   0.0   
8.645000000000001   6.417248242042691   0.0   
9.88   7.1302758244918785   0.0   
7.41   8.556330989390254   0.0   
8.645   9.269358571839442   0.0   
6.175000000000001   10.695413736737818   0.0   
7.410000000000001   11.408441319187006   0.0   
4.940000000000001   12.834496484085381   0.0   
6.175000000000001   13.547524066534569   0.0   
3.705000000000002   14.973579231432943   0.0   
4.940000000000001   15.68660681388213   0.0   
2.469999999999999   17.11266197878051   0.0   
3.705   17.825689561229698   0.0   
1.2349999999999994   19.251744726128074   0.0   
2.469999999999999   19.96477230857726   0.0   
14.82   0.0   0.0   
16.055000000000003   0.7130275824491878   0.0   
13.585   2.1390827473475635   0.0   
14.820000000000002   2.8521103297967514   0.0   
12.35   4.278165494695127   0.0   
13.585   4.991193077144315   0.0   
11.115   6.417248242042691   0.0   
12.350000000000001   7.1302758244918785   0.0   
9.879999999999999   8.556330989390254   0.0   
11.115000000000002   9.269358571839442   0.0   
8.645   10.695413736737818   0.0   
9.880000000000003   11.408441319187006   0.0   
7.41   12.834496484085381   0.0   
8.645000000000001   13.547524066534569   0.0   
6.175000000000001   14.973579231432943   0.0   
7.410000000000002   15.68660681388213   0.0   
4.939999999999998   17.11266197878051   0.0   
6.175000000000001   17.825689561229698   0.0   
3.7049999999999983   19.251744726128074   0.0   
4.9399999999999995   19.96477230857726   0.0   
17.29   0.0   0.0   
18.525000000000002   0.7130275824491878   0.0   
16.055   2.1390827473475635   0.0   
17.29   2.8521103297967514   0.0   
14.819999999999999   4.278165494695127   0.0   
16.055   4.991193077144315   0.0   
13.584999999999999   6.417248242042691   0.0   
14.82   7.1302758244918785   0.0   
12.349999999999998   8.556330989390254   0.0   
13.585   9.269358571839442   0.0   
11.114999999999998   10.695413736737818   0.0   
12.350000000000001   11.408441319187006   0.0   
9.879999999999999   12.834496484085381   0.0   
11.115   13.547524066534569   0.0   
8.645   14.973579231432943   0.0   
9.88   15.68660681388213   0.0   
7.409999999999997   17.11266197878051   0.0   
8.645   17.825689561229698   0.0   
6.174999999999997   19.251744726128074   0.0   
7.409999999999998   19.96477230857726   0.0   
19.760000000000005   0.0   0.0   
20.995000000000005   0.7130275824491878   0.0   
18.525000000000006   2.1390827473475635   0.0   
19.76   2.8521103297967514   0.0   
17.290000000000006   4.278165494695127   0.0   
18.525000000000002   4.991193077144315   0.0   
16.055000000000007   6.417248242042691   0.0   
17.290000000000003   7.1302758244918785   0.0   
14.820000000000004   8.556330989390254   0.0   
16.055000000000003   9.269358571839442   0.0   
13.585000000000004   10.695413736737818   0.0   
14.820000000000004   11.408441319187006   0.0   
12.350000000000005   12.834496484085381   0.0   
13.585000000000003   13.547524066534569   0.0   
11.115000000000006   14.973579231432943   0.0   
12.350000000000003   15.68660681388213   0.0   
9.880000000000003   17.11266197878051   0.0   
11.115000000000002   17.825689561229698   0.0   
8.645000000000003   19.251744726128074   0.0   
9.88   19.96477230857726   0.0   
22.230000000000004   0.0   0.0   
23.465000000000003   0.7130275824491878   0.0   
20.995000000000005   2.1390827473475635   0.0   
22.23   2.8521103297967514   0.0   
19.760000000000005   4.278165494695127   0.0   
20.995   4.991193077144315   0.0   
18.525000000000006   6.417248242042691   0.0   
19.76   7.1302758244918785   0.0   
17.290000000000003   8.556330989390254   0.0   
18.525000000000002   9.269358571839442   0.0   
16.055000000000003   10.695413736737818   0.0   
17.290000000000003   11.408441319187006   0.0   
14.820000000000004   12.834496484085381   0.0   
16.055   13.547524066534569   0.0   
13.585000000000004   14.973579231432943   0.0   
14.820000000000002   15.68660681388213   0.0   
12.350000000000001   17.11266197878051   0.0   
13.585   17.825689561229698   0.0   
11.115000000000002   19.251744726128074   0.0   
12.35   19.96477230857726   0.0   
