Graphene
   1
2.5   0.0   0.0   
-1.25   2.1650635094610964   0.0   
0   0   24   
   C
    2
Cartesian
0.0   0.0   0.0   
1.25   0.721687836487032   0.0   
